Welcome to the CBC MILP Solver 
Version: 2.10.12 
Build Date: Jun 17 2025 

command line - cbc -solve -quit (default strategy 1)
Presolve 1200 (0) rows, 4791 (-10) columns and 33960 (-9) elements
0 infeas 0, obj 0 - mu 0.1, its 0, 0 interior
1 infeas 0.015393333, obj 0.019992502 - mu 0.1, its 2, 800 interior
2 infeas 0.0058144489, obj 5.1421456 - mu 0.1, its 105, 1806 interior
3 infeas 0.0040457566, obj 10.247651 - mu 0.1, its 105, 1875 interior
4 infeas 0.0045391165, obj 14.78076 - mu 0.1, its 105, 2054 interior
5 infeas 0.0041405911, obj 19.830602 - mu 0.1, its 105, 2091 interior
6 infeas 0.0031096877, obj 24.854481 - mu 0.1, its 105, 2105 interior
7 infeas 0.0056322612, obj 26.376953 - mu 0.03333, its 105, 2117 interior
8 infeas 0.00221488, obj 27.891202 - mu 0.03333, its 105, 2139 interior
9 infeas 0.0022707099, obj 29.579105 - mu 0.03333, its 105, 2178 interior
10 infeas 0.0014737706, obj 31.005698 - mu 0.03333, its 105, 2206 interior
11 infeas 0.0016196097, obj 32.6166 - mu 0.03333, its 105, 2242 interior
12 infeas 0.0017287609, obj 34.027252 - mu 0.03333, its 105, 2243 interior
13 infeas 0.0018726964, obj 34.532347 - mu 0.011108889, its 105, 2270 interior
14 infeas 0.00050288759, obj 35.096993 - mu 0.011108889, its 105, 2279 interior
15 infeas 0.00064871043, obj 35.602719 - mu 0.011108889, its 105, 2298 interior
16 infeas 0.00065960846, obj 36.152862 - mu 0.011108889, its 105, 2313 interior
17 infeas 0.00059198253, obj 36.690974 - mu 0.011108889, its 105, 2330 interior
18 infeas 0.0005748538, obj 37.219815 - mu 0.011108889, its 105, 2337 interior
19 infeas 0.00061095125, obj 37.382419 - mu 0.0037025927, its 105, 2352 interior
20 infeas 0.00023370072, obj 37.564316 - mu 0.0037025927, its 105, 2370 interior
21 infeas 0.00024771517, obj 37.694997 - mu 0.0037025927, its 105, 2386 interior
22 infeas 0.00026292618, obj 37.852951 - mu 0.0037025927, its 105, 2393 interior
23 infeas 0.0002238401, obj 38.010341 - mu 0.0037025927, its 105, 2398 interior
24 infeas 0.00023769755, obj 38.166381 - mu 0.0037025927, its 105, 2427 interior
25 infeas 0.00020734522, obj 38.227361 - mu 0.0012340741, its 105, 2448 interior
26 infeas 6.671939e-05, obj 38.289011 - mu 0.0012340741, its 105, 2448 interior
27 infeas 7.2125777e-05, obj 38.35202 - mu 0.0012340741, its 105, 2448 interior
28 infeas 6.4865068e-05, obj 38.41384 - mu 0.0012340741, its 105, 2448 interior
29 infeas 4.1619326e-05, obj 38.47637 - mu 0.0012340741, its 105, 2448 interior
30 infeas 3.7317377e-05, obj 38.538659 - mu 0.0012340741, its 105, 2448 interior
31 infeas 7.0292337e-05, obj 38.559995 - mu 0.00041131691, its 105, 2448 interior
32 infeas 2.3696347e-05, obj 38.57885 - mu 0.00041131691, its 105, 2448 interior
33 infeas 2.2684917e-05, obj 38.599215 - mu 0.00041131691, its 105, 2448 interior
34 infeas 2.2052249e-05, obj 38.616831 - mu 0.00041131691, its 105, 2448 interior
35 infeas 2.9302872e-05, obj 38.6313 - mu 0.00041131691, its 105, 2448 interior
36 infeas 2.7342595e-05, obj 38.649012 - mu 0.00041131691, its 105, 2448 interior
37 infeas 2.2980124e-05, obj 38.655398 - mu 0.00013709193, its 105, 2448 interior
38 infeas 7.2092594e-06, obj 38.662337 - mu 0.00013709193, its 105, 2448 interior
39 infeas 1.3584297e-05, obj 38.667941 - mu 0.00013709193, its 105, 2448 interior
40 infeas 1.224134e-05, obj 38.672879 - mu 0.00013709193, its 105, 2448 interior
41 infeas 8.7793609e-06, obj 38.677552 - mu 0.00013709193, its 105, 2448 interior
42 infeas 8.316607e-06, obj 38.682793 - mu 0.00013709193, its 105, 2448 interior
43 infeas 7.7400787e-06, obj 38.685097 - mu 4.5692739e-05, its 105, 2448 interior
44 infeas 2.3730675e-06, obj 38.687236 - mu 4.5692739e-05, its 105, 2448 interior
45 infeas 2.9986334e-06, obj 38.689551 - mu 4.5692739e-05, its 105, 2448 interior
46 infeas 2.546234e-06, obj 38.691715 - mu 4.5692739e-05, its 105, 2448 interior
47 infeas 2.0733549e-06, obj 38.693941 - mu 4.5692739e-05, its 105, 2448 interior
48 infeas 3.8598217e-06, obj 38.695637 - mu 4.5692739e-05, its 105, 2448 interior
49 infeas 2.5327494e-06, obj 38.696376 - mu 1.522939e-05, its 105, 2448 interior
50 infeas 1.1503508e-06, obj 38.697156 - mu 1.522939e-05, its 105, 2448 interior
51 infeas 1.181599e-06, obj 38.697779 - mu 1.522939e-05, its 105, 2448 interior
sum of infeasibilities 8.16649e-05 - average 6.80541e-08, 2353 fixed columns
Presolve 1200 (0) rows, 2441 (-2360) columns and 14664 (-19305) elements
0  Obj 38.697156 Primal inf 6.000892e-06 (104) Dual inf 2.6131632e+12 (1946)
99  Obj 38.697156 Primal inf 1.1617836e-05 (132) Dual inf 1.3603653e+13 (2118)
147  Obj 38.697156 Primal inf 1.1484642e-05 (114) Dual inf 1.6013412e+13 (2130)
193  Obj 38.697156 Primal inf 1.0918211e-05 (107) Dual inf 1.9354856e+13 (2143)
245  Obj 38.697156 Primal inf 1.3095143e-05 (92) Dual inf 1.4081058e+13 (2129)
305  Obj 38.697156 Primal inf 1.0810152e-05 (58) Dual inf 1.5092166e+13 (2098)
377  Obj 38.697156 Primal inf 4.2981966e-06 (11) Dual inf 2.5614826e+12 (2051)
479  Obj 38.697156 Dual inf 0.50293337 (400)
589  Obj 38.697156 Dual inf 0.50293337 (400)
740  Obj 38.697156 Dual inf 0.50293337 (400)
938  Obj 38.697156 Dual inf 0.50293337 (400)
1136  Obj 38.697156 Dual inf 0.50293337 (400)
1313  Obj 38.697156 Dual inf 0.50293337 (400)
1446  Obj 38.697156 Dual inf 0.50293337 (400)
1554  Obj 38.697156 Dual inf 0.50293337 (400)
1626  Obj 38.697156 Dual inf 0.50293337 (400)
1725  Obj 38.879997 Dual inf 78730.472 (1330)
1824  Obj 42.108492 Dual inf 183969.59 (1264)
1923  Obj 42.942929 Dual inf 186125.52 (1191)
2022  Obj 46.111877 Dual inf 196481 (1153)
2119  Obj 67.409054 Dual inf 253966.61 (1073)
2209  Obj 86.003974 Dual inf 204077.52 (1007)
2307  Obj 132.74233 Dual inf 406913.51 (1051)
2408  Obj 184.00519 Dual inf 370674.12 (1024)
End of values pass after 2441 iterations
2441  Obj 200.98726 Dual inf 185188.09 (1053)
Perturbing problem by 0.001% of 11.66719 - largest nonzero change 8.9412212e-05 ( 0.00099871703%) - largest zero change 1.9962932e-05
2500  Obj 245.5298 Dual inf 2121260.6 (898)
2565  Obj 268.13878 Dual inf 1485816.1 (835)
2630  Obj 290.64146 Dual inf 1336180.1 (976)
2692  Obj 308.55675 Dual inf 1238653.6 (922)
2767  Obj 321.33318 Dual inf 433403.3 (1069)
2844  Obj 336.39218 Dual inf 2374364.6 (984)
2930  Obj 344.32844 Dual inf 557009.16 (993)
3027  Obj 351.93448 Dual inf 753444.31 (977)
3123  Obj 360.02199 Dual inf 4060149.1 (1089)
3222  Obj 365.57556 Dual inf 447065.43 (987)
3321  Obj 372.1642 Dual inf 158209.47 (979)
3420  Obj 375.21874 Dual inf 234597.64 (957)
3519  Obj 378.79738 Dual inf 86240.305 (980)
3618  Obj 380.73678 Dual inf 148376.02 (907)
3717  Obj 384.39136 Dual inf 124818.72 (995)
3816  Obj 391.15624 Dual inf 96040.543 (950)
3915  Obj 394.86568 Dual inf 126072.32 (992)
4009  Obj 397.96305 Dual inf 109840.46 (961)
4105  Obj 399.99685 Dual inf 186.15496 (834)
4199  Obj 399.99869 Dual inf 126.01267 (831)
4298  Obj 399.99978 Dual inf 12.102976 (750)
4344  Obj 400
Optimal - objective value 400
0  Obj 400
Optimal - objective value 400
After Postsolve, objective 400, infeasibilities - dual 0 (0), primal 0 (0)
0  Obj 400
Optimal - objective value 400
0  Obj 400
Optimal - objective value 400
0  Obj 400
Optimal - objective value 400
Optimal objective 400 - 0 iterations time 1.792, Idiot 1.77
Continuous objective value is 400 - 1.80 seconds
Optimal - objective value 400
Optimal - objective value 400
Optimal - objective value 400
Optimal - objective value -400
Optimal - objective value -400
Optimal - objective value -400
Exiting on maximum time
Partial search - best objective -1e+50 (best possible 400), took 0 iterations and 0 nodes (1.95 seconds)
Maximum depth 0, 0 variables fixed on reduced cost
Cuts at root node changed objective from 400 to 400
Probing was tried 0 times and created 0 cuts of which 0 were active after adding rounds of cuts (0.000 seconds)
Gomory was tried 0 times and created 0 cuts of which 0 were active after adding rounds of cuts (0.000 seconds)
Knapsack was tried 0 times and created 0 cuts of which 0 were active after adding rounds of cuts (0.000 seconds)
Clique was tried 0 times and created 0 cuts of which 0 were active after adding rounds of cuts (0.000 seconds)
MixedIntegerRounding2 was tried 0 times and created 0 cuts of which 0 were active after adding rounds of cuts (0.000 seconds)
FlowCover was tried 0 times and created 0 cuts of which 0 were active after adding rounds of cuts (0.000 seconds)
TwoMirCuts was tried 0 times and created 0 cuts of which 0 were active after adding rounds of cuts (0.000 seconds)
ZeroHalf was tried 0 times and created 0 cuts of which 0 were active after adding rounds of cuts (0.000 seconds)

Result - Stopped on time limit

No feasible solution found
Upper bound:                    400.000
Enumerated nodes:               0
Total iterations:               0
Time (CPU seconds):             1.95
Time (Wallclock seconds):       1.95

Total time (CPU seconds):       1.95   (Wallclock seconds):       1.95

